proyfinal/src/viki/013/andrea/andrea-localstore/experimentInOfficeAgust.take6/worker_5/8ed37edb-c8c7-4e59-9b94-8086d6f8ea2a.als.cnf.out
Reading from standard input... Use '--help' for help.
============================[ Problem Statistics ]=============================
|                                                                             |
|  Number of variables:         87638                                         |
|  Number of clauses:          161767                                         |
|  Parse time:                   0.04 s                                       |
|                                                                             |
============================[ Search Statistics ]==============================
| Conflicts |          ORIGINAL         |          LEARNT          | Progress |
|           |    Vars  Clauses Literals |    Limit  Clauses Lit/Cl |          |
===============================================================================
|       100 |   62306   104937   262180 |    38476      100     45 | 28.905 % |
|       250 |   62303   104914   262122 |    42324      249     69 | 28.909 % |
|       475 |   62302   104870   262032 |    46557      472     54 | 28.910 % |
|       812 |   50403    70944   178700 |    51212      800     49 | 42.487 % |
|      1318 |   50400    70936   178684 |    56334     1305     47 | 42.491 % |
|      2077 |   50400    70936   178684 |    61967     2064     51 | 42.491 % |
|      3216 |   50298    70540   177745 |    68164     3196     47 | 42.607 % |
|      4924 |   50223    70205   176944 |    74980     3991     43 | 42.693 % |
|      7486 |   50112    69800   175981 |    82478     6544     42 | 42.819 % |
|     11330 |   49731    68110   171928 |    90726     9828     45 | 43.254 % |
===============================================================================
restarts              : 63
conflicts             : 16139          (8128 /sec)
decisions             : 46333          (0.00 % random) (23334 /sec)
propagations          : 22853771       (11509443 /sec)
conflict literals     : 715201         (46.99 % deleted)
Memory used           : 30.19 MB
CPU time              : 1.98565 s

UNSATISFIABLE
